c
c This is glucose 2.1 --  based on MiniSAT (Many thanks to MiniSAT team)
c
c WARNING: for repeatability, setting FPU to use double precision
c ========================================[ Problem Statistics ]===========================================
c |                                                                                                       |
c |  Number of variables:        195626                                                                   |
c |  Number of clauses:          441080                                                                   |
c |  Parse time:                   0.12 s                                                                 |
c |                                                                                                       |
c ========================================[ MAGIC CONSTANTS ]==============================================
c | Constants are supposed to work well together :-)                                                      |
c | however, if you find better choices, please let us known...                                           |
c |-------------------------------------------------------------------------------------------------------|
c |                                |                                |                                     |
c | - Restarts:                    | - Reduce Clause DB:            | - Minimize Asserting:               |
c |   * LBD Queue    :     50      |   * First     :   4000         |    * size <  30                     |
c |   * Trail  Queue :   5000      |   * Inc       :    300         |    * lbd  <   6                     |
c |   * K            :   0.80      |   * Special   :   1000         |                                     |
c |   * R            :   1.40      |   * Protected :  (lbd)< 30     |                                     |
c |                                |                                |                                     |
c ==================================[ Search Statistics (every  10000 conflicts) ]=========================
c |                                                                                                       |
c |          RESTARTS           |          ORIGINAL         |              LEARNT              | Progress |
c |       NB   Blocked  Avg Cfc |    Vars  Clauses Literals |   Red   Learnts    LBD2  Removed |          |
c =========================================================================================================
c |       62         0      161 |  105646   429880   965606 |     1     8013      274     1986 | 45.996 % |
c |      130         0      153 |  105646   429880   965606 |     3     6980      560    13019 | 45.996 % |
c |      211         0      142 |  105646   429880   965606 |     3    16980      866    13019 | 45.996 % |
c |      290         0      137 |  105646   429880   965606 |     4    17698     1074    22301 | 45.996 % |
c |      385         0      129 |  105641   429877   965597 |     5    16373     1265    33624 | 45.998 % |
c last restart ## conflicts  :  58 203 
c =========================================================================================================
c restarts              : 443 (126 conflicts in avg)
c blocked restarts      : 0 (multiple: 0) 
c last block at restart : 0
c nb ReduceDB           : 5
c nb removed Clauses    : 33624
c nb learnts DL2        : 1371
c nb learnts size 2     : 495
c nb learnts size 1     : 2
c conflicts             : 55833          (1589 /sec)
c decisions             : 371140         (0.00 % random) (10560 /sec)
c propagations          : 185528149      (5278755 /sec)
c conflict literals     : 2370268        (16.77 % deleted)
c nb reduced Clauses    : 2041
c CPU time              : 35.1462 s
s SATISFIABLE
